benchmark/results/graph__15-1000-0.10-04_5/graph__15-1000-0.10-04_5_Quinton_Benders_primal_sub.lp
\ This file has been generated by DOcplex
\ ENCODING=ISO-8859-1
\Problem name: Quinton Benders_primal_sub

Maximize
 obj: tau
Subject To
 c1: tau <= 0.000993048659
 c2: y_a0_proc_0 + y_a0_proc_1 + y_a0_proc_3 - tau = 0
 c3: y_a0_proc_0 <= 0
 c4: y_a0_proc_1 <= 0
 c5: y_a0_proc_3 <= 1
 c6: tau <= 0.001686340641
 c7: y_a1_proc_0 + y_a1_proc_1 + y_a1_proc_3 - tau = 0
 c8: y_a1_proc_0 <= 0
 c9: y_a1_proc_1 <= 1
 c10: y_a1_proc_3 <= 0
 c11: tau <= 0.001470588235
 c12: y_a2_proc_0 + y_a2_proc_1 + y_a2_proc_2 + y_a2_proc_3 - tau = 0
 c13: y_a2_proc_0 <= 0
 c14: y_a2_proc_1 <= 0
 c15: y_a2_proc_2 <= 1
 c16: y_a2_proc_3 <= 0
 c17: tau <= 0.000906618314
 c18: y_a3_proc_0 + y_a3_proc_1 + y_a3_proc_2 + y_a3_proc_3 - tau = 0
 c19: y_a3_proc_0 <= 0
 c20: y_a3_proc_1 <= 1
 c21: y_a3_proc_2 <= 0
 c22: y_a3_proc_3 <= 0
 c23: tau <= 0.002040816327
 c24: y_a4_proc_0 + y_a4_proc_1 + y_a4_proc_2 + y_a4_proc_3 - tau = 0
 c25: y_a4_proc_0 <= 0
 c26: y_a4_proc_1 <= 0
 c27: y_a4_proc_2 <= 1
 c28: y_a4_proc_3 <= 0
 c29: tau <= 0.000830564784
 c30: y_a5_proc_0 + y_a5_proc_1 + y_a5_proc_2 + y_a5_proc_3 - tau = 0
 c31: y_a5_proc_0 <= 0
 c32: y_a5_proc_1 <= 0
 c33: y_a5_proc_2 <= 1
 c34: y_a5_proc_3 <= 0
 c35: tau <= 0.002283105023
 c36: y_a6_proc_0 + y_a6_proc_1 + y_a6_proc_2 + y_a6_proc_3 - tau = 0
 c37: y_a6_proc_0 <= 0
 c38: y_a6_proc_1 <= 0
 c39: y_a6_proc_2 <= 0
 c40: y_a6_proc_3 <= 1
 c41: tau <= 0.000955109838
 c42: y_a7_proc_0 + y_a7_proc_3 - tau = 0
 c43: y_a7_proc_0 <= 1
 c44: y_a7_proc_3 <= 0
 c45: tau <= 0.001457725948
 c46: y_a8_proc_0 + y_a8_proc_1 - tau = 0
 c47: y_a8_proc_0 <= 0
 c48: y_a8_proc_1 <= 1
 c49: tau <= 0.001233045623
 c50: y_a9_proc_0 + y_a9_proc_1 + y_a9_proc_2 + y_a9_proc_3 - tau = 0
 c51: y_a9_proc_0 <= 0
 c52: y_a9_proc_1 <= 0
 c53: y_a9_proc_2 <= 0
 c54: y_a9_proc_3 <= 1
 c55: tau <= 0.000780031201
 c56: y_a10_proc_0 + y_a10_proc_1 + y_a10_proc_2 + y_a10_proc_3 - tau = 0
 c57: y_a10_proc_0 <= 1
 c58: y_a10_proc_1 <= 0
 c59: y_a10_proc_2 <= 0
 c60: y_a10_proc_3 <= 0
 c61: tau <= 0.001233045623
 c62: y_a11_proc_0 + y_a11_proc_1 + y_a11_proc_2 + y_a11_proc_3 - tau = 0
 c63: y_a11_proc_0 <= 0
 c64: y_a11_proc_1 <= 1
 c65: y_a11_proc_2 <= 0
 c66: y_a11_proc_3 <= 0
 c67: tau <= 0.001383125864
 c68: y_a12_proc_0 + y_a12_proc_1 + y_a12_proc_2 - tau = 0
 c69: y_a12_proc_0 <= 1
 c70: y_a12_proc_1 <= 0
 c71: y_a12_proc_2 <= 0
 c72: tau <= 0.001288659794
 c73: y_a13_proc_0 + y_a13_proc_2 + y_a13_proc_3 - tau = 0
 c74: y_a13_proc_0 <= 1
 c75: y_a13_proc_2 <= 0
 c76: y_a13_proc_3 <= 0
 c77: tau <= 0.001088139282
 c78: y_a14_proc_0 + y_a14_proc_1 + y_a14_proc_2 + y_a14_proc_3 - tau = 0
 c79: y_a14_proc_0 <= 1
 c80: y_a14_proc_1 <= 0
 c81: y_a14_proc_2 <= 0
 c82: y_a14_proc_3 <= 0
 c83: u_a1 - u_a0 - 961 y_a0_proc_0 - 670 y_a0_proc_1 - 1007 y_a0_proc_3 >= -1
 c84: u_a0 - u_a2 - 1271 y_a2_proc_0 - 952 y_a2_proc_1 - 680 y_a2_proc_2
      - 1235 y_a2_proc_3 >= 0
 c85: u_a1 - u_a3 - 1161 y_a3_proc_0 - 1103 y_a3_proc_1 - 1285 y_a3_proc_2
      - 1112 y_a3_proc_3 >= 0
 c86: u_a4 - u_a1 - 940 y_a1_proc_0 - 593 y_a1_proc_1 - 856 y_a1_proc_3 >= 0
 c87: u_a0 - u_a5 - 710 y_a5_proc_0 - 1096 y_a5_proc_1 - 1204 y_a5_proc_2
      - 949 y_a5_proc_3 >= -1
 c88: u_a6 - u_a2 - 1271 y_a2_proc_0 - 952 y_a2_proc_1 - 680 y_a2_proc_2
      - 1235 y_a2_proc_3 >= -1
 c89: u_a7 - u_a4 - 945 y_a4_proc_0 - 1108 y_a4_proc_1 - 490 y_a4_proc_2
      - 847 y_a4_proc_3 >= -1
 c90: u_a8 - u_a6 - 1133 y_a6_proc_0 - 948 y_a6_proc_1 - 592 y_a6_proc_2
      - 438 y_a6_proc_3 >= 0
 c91: u_a2 - u_a9 - 1268 y_a9_proc_0 - 1104 y_a9_proc_1 - 996 y_a9_proc_2
      - 811 y_a9_proc_3 >= 0
 c92: u_a1 - u_a10 - 1282 y_a10_proc_0 - 947 y_a10_proc_1 - 1133 y_a10_proc_2
      - 749 y_a10_proc_3 >= 0
 c93: u_a11 - u_a4 - 945 y_a4_proc_0 - 1108 y_a4_proc_1 - 490 y_a4_proc_2
      - 847 y_a4_proc_3 >= -1
 c94: u_a12 - u_a6 - 1133 y_a6_proc_0 - 948 y_a6_proc_1 - 592 y_a6_proc_2
      - 438 y_a6_proc_3 >= 0
 c95: u_a2 - u_a13 - 776 y_a13_proc_0 - 925 y_a13_proc_2 - 1009 y_a13_proc_3
       >= 0
 c96: u_a14 - u_a6 - 1133 y_a6_proc_0 - 948 y_a6_proc_1 - 592 y_a6_proc_2
      - 438 y_a6_proc_3 >= 0
 c97: u_a3 - u_a11 - 868 y_a11_proc_0 - 811 y_a11_proc_1 - 1094 y_a11_proc_2
      - 1276 y_a11_proc_3 >= 0
 c98: u_a10 - u_a5 - 710 y_a5_proc_0 - 1096 y_a5_proc_1 - 1204 y_a5_proc_2
      - 949 y_a5_proc_3 >= -1
 c99: u_a10 - u_a14 - 919 y_a14_proc_0 - 584 y_a14_proc_1 - 889 y_a14_proc_2
      - 866 y_a14_proc_3 >= 0
 c100: u_a13 - u_a12 - 723 y_a12_proc_0 - 806 y_a12_proc_1 - 765 y_a12_proc_2
        >= 0
 c101: u_a13 - u_a5 - 710 y_a5_proc_0 - 1096 y_a5_proc_1 - 1204 y_a5_proc_2
       - 949 y_a5_proc_3 >= -1
 c102: u_a13 - u_a8 - 1042 y_a8_proc_0 - 686 y_a8_proc_1 >= 0
 c103: u_a9 - u_a4 - 945 y_a4_proc_0 - 1108 y_a4_proc_1 - 490 y_a4_proc_2
       - 847 y_a4_proc_3 >= -1
 c104: u_a12 - u_a1 - 940 y_a1_proc_0 - 593 y_a1_proc_1 - 856 y_a1_proc_3 >= -1
 c105: u_a10 - u_a7 - 1047 y_a7_proc_0 - 1168 y_a7_proc_3 >= 0
 c106: u_a5 - u_a2 - 1271 y_a2_proc_0 - 952 y_a2_proc_1 - 680 y_a2_proc_2
       - 1235 y_a2_proc_3 >= 0
 c107: - 868 y_a11_proc_0 - 811 y_a11_proc_1 - 1094 y_a11_proc_2
       - 1276 y_a11_proc_3 >= -1
 c108: u_a9 - u_a7 - 1047 y_a7_proc_0 - 1168 y_a7_proc_3 >= 0
 c109: u_a1 - u_a0 - 961 y_a0_proc_0 >= -3856
 c110: u_a1 - u_a0 - 670 y_a0_proc_1 >= -2571
 c111: u_a1 - u_a0 - 1007 y_a0_proc_3 >= -2571
 c112: u_a0 - u_a1 - 940 y_a1_proc_0 >= -1285
 c113: u_a0 - u_a1 - 593 y_a1_proc_1 >= 0
 c114: u_a0 - u_a1 - 856 y_a1_proc_3 >= 0
 c115: u_a2 - u_a0 - 961 y_a0_proc_0 >= -3856
 c116: u_a2 - u_a0 - 670 y_a0_proc_1 >= -3856
 c117: u_a2 - u_a0 - 1007 y_a0_proc_3 >= -2571
 c118: u_a0 - u_a2 - 1271 y_a2_proc_0 >= -1285
 c119: u_a0 - u_a2 - 952 y_a2_proc_1 >= -1285
 c120: u_a0 - u_a2 - 1235 y_a2_proc_3 >= 0
 c121: u_a3 - u_a0 - 961 y_a0_proc_0 >= -3856
 c122: u_a3 - u_a0 - 670 y_a0_proc_1 >= -2571
 c123: u_a3 - u_a0 - 1007 y_a0_proc_3 >= -2571
 c124: u_a0 - u_a3 - 1161 y_a3_proc_0 >= -1285
 c125: u_a0 - u_a3 - 1103 y_a3_proc_1 >= 0
 c126: u_a0 - u_a3 - 1112 y_a3_proc_3 >= 0
 c127: u_a4 - u_a0 - 961 y_a0_proc_0 >= -3856
 c128: u_a4 - u_a0 - 670 y_a0_proc_1 >= -3856
 c129: u_a4 - u_a0 - 1007 y_a0_proc_3 >= -2571
 c130: u_a0 - u_a4 - 945 y_a4_proc_0 >= -1285
 c131: u_a0 - u_a4 - 1108 y_a4_proc_1 >= -1285
 c132: u_a0 - u_a4 - 847 y_a4_proc_3 >= 0
 c133: u_a5 - u_a0 - 961 y_a0_proc_0 >= -3856
 c134: u_a5 - u_a0 - 670 y_a0_proc_1 >= -3856
 c135: u_a5 - u_a0 - 1007 y_a0_proc_3 >= -2571
 c136: u_a0 - u_a5 - 710 y_a5_proc_0 >= -1285
 c137: u_a0 - u_a5 - 1096 y_a5_proc_1 >= -1285
 c138: u_a0 - u_a5 - 949 y_a5_proc_3 >= 0
 c139: u_a6 - u_a0 - 961 y_a0_proc_0 >= -2572
 c140: u_a6 - u_a0 - 670 y_a0_proc_1 >= -2572
 c141: u_a6 - u_a0 - 1007 y_a0_proc_3 >= -2
 c142: u_a0 - u_a6 - 1133 y_a6_proc_0 >= -2569
 c143: u_a0 - u_a6 - 948 y_a6_proc_1 >= -2569
 c144: u_a0 - u_a6 - 438 y_a6_proc_3 >= 1
 c145: u_a7 - u_a0 - 961 y_a0_proc_0 >= -2572
 c146: u_a7 - u_a0 - 1007 y_a0_proc_3 >= -2572
 c147: u_a0 - u_a7 - 1047 y_a7_proc_0 >= 1
 c148: u_a0 - u_a7 - 1168 y_a7_proc_3 >= 1
 c149: u_a8 - u_a0 - 961 y_a0_proc_0 >= -3857
 c150: u_a8 - u_a0 - 670 y_a0_proc_1 >= -2572
 c151: u_a0 - u_a8 - 1042 y_a8_proc_0 >= -1284
 c152: u_a0 - u_a8 - 686 y_a8_proc_1 >= 1
 c153: u_a9 - u_a0 - 961 y_a0_proc_0 >= -2572
 c154: u_a9 - u_a0 - 670 y_a0_proc_1 >= -2572
 c155: u_a9 - u_a0 - 1007 y_a0_proc_3 >= -2
 c156: u_a0 - u_a9 - 1268 y_a9_proc_0 >= -2569
 c157: u_a0 - u_a9 - 1104 y_a9_proc_1 >= -2569
 c158: u_a0 - u_a9 - 811 y_a9_proc_3 >= 1
 c159: u_a10 - u_a0 - 961 y_a0_proc_0 >= -2571
 c160: u_a10 - u_a0 - 670 y_a0_proc_1 >= -3856
 c161: u_a10 - u_a0 - 1007 y_a0_proc_3 >= -2571
 c162: u_a0 - u_a10 - 1282 y_a10_proc_0 >= 0
 c163: u_a0 - u_a10 - 947 y_a10_proc_1 >= -1285
 c164: u_a0 - u_a10 - 749 y_a10_proc_3 >= 0
 c165: u_a11 - u_a0 - 961 y_a0_proc_0 >= -3857
 c166: u_a11 - u_a0 - 670 y_a0_proc_1 >= -2572
 c167: u_a11 - u_a0 - 1007 y_a0_proc_3 >= -2572
 c168: u_a0 - u_a11 - 868 y_a11_proc_0 >= -1284
 c169: u_a0 - u_a11 - 811 y_a11_proc_1 >= 1
 c170: u_a0 - u_a11 - 1276 y_a11_proc_3 >= 1
 c171: u_a12 - u_a0 - 961 y_a0_proc_0 >= -2572
 c172: u_a12 - u_a0 - 670 y_a0_proc_1 >= -3857
 c173: u_a0 - u_a12 - 723 y_a12_proc_0 >= 1
 c174: u_a0 - u_a12 - 806 y_a12_proc_1 >= -1284
 c175: u_a13 - u_a0 - 961 y_a0_proc_0 >= -2572
 c176: u_a13 - u_a0 - 1007 y_a0_proc_3 >= -2572
 c177: u_a0 - u_a13 - 776 y_a13_proc_0 >= 1
 c178: u_a0 - u_a13 - 1009 y_a13_proc_3 >= 1
 c179: u_a14 - u_a0 - 961 y_a0_proc_0 >= -2572
 c180: u_a14 - u_a0 - 670 y_a0_proc_1 >= -3857
 c181: u_a14 - u_a0 - 1007 y_a0_proc_3 >= -2572
 c182: u_a0 - u_a14 - 919 y_a14_proc_0 >= 1
 c183: u_a0 - u_a14 - 584 y_a14_proc_1 >= -1284
 c184: u_a0 - u_a14 - 866 y_a14_proc_3 >= 1
 c185: u_a2 - u_a1 - 940 y_a1_proc_0 >= -3856
 c186: u_a2 - u_a1 - 593 y_a1_proc_1 >= -2571
 c187: u_a2 - u_a1 - 856 y_a1_proc_3 >= -3856
 c188: u_a1 - u_a2 - 1271 y_a2_proc_0 >= -1285
 c189: u_a1 - u_a2 - 952 y_a2_proc_1 >= 0
 c190: u_a1 - u_a2 - 1235 y_a2_proc_3 >= -1285
 c191: u_a3 - u_a1 - 940 y_a1_proc_0 >= -2571
 c192: u_a3 - u_a1 - 593 y_a1_proc_1 >= -1
 c193: u_a3 - u_a1 - 856 y_a1_proc_3 >= -2571
 c194: u_a1 - u_a3 - 1161 y_a3_proc_0 >= -2570
 c195: u_a1 - u_a3 - 1103 y_a3_proc_1 >= 0
 c196: u_a1 - u_a3 - 1112 y_a3_proc_3 >= -2570
 c197: u_a4 - u_a1 - 940 y_a1_proc_0 >= -3855
 c198: u_a4 - u_a1 - 593 y_a1_proc_1 >= -2570
 c199: u_a4 - u_a1 - 856 y_a1_proc_3 >= -3855
 c200: u_a1 - u_a4 - 945 y_a4_proc_0 >= -1286
 c201: u_a1 - u_a4 - 1108 y_a4_proc_1 >= -1
 c202: u_a1 - u_a4 - 847 y_a4_proc_3 >= -1286
 c203: u_a5 - u_a1 - 940 y_a1_proc_0 >= -3856
 c204: u_a5 - u_a1 - 593 y_a1_proc_1 >= -2571
 c205: u_a5 - u_a1 - 856 y_a1_proc_3 >= -3856
 c206: u_a1 - u_a5 - 710 y_a5_proc_0 >= -1285
 c207: u_a1 - u_a5 - 1096 y_a5_proc_1 >= 0
 c208: u_a1 - u_a5 - 949 y_a5_proc_3 >= -1285
 c209: u_a6 - u_a1 - 940 y_a1_proc_0 >= -3856
 c210: u_a6 - u_a1 - 593 y_a1_proc_1 >= -2571
 c211: u_a6 - u_a1 - 856 y_a1_proc_3 >= -2571
 c212: u_a1 - u_a6 - 1133 y_a6_proc_0 >= -1285
 c213: u_a1 - u_a6 - 948 y_a6_proc_1 >= 0
 c214: u_a1 - u_a6 - 438 y_a6_proc_3 >= 0
 c215: u_a7 - u_a1 - 940 y_a1_proc_0 >= -2571
 c216: u_a7 - u_a1 - 856 y_a1_proc_3 >= -3856
 c217: u_a1 - u_a7 - 1047 y_a7_proc_0 >= 0
 c218: u_a1 - u_a7 - 1168 y_a7_proc_3 >= -1285
 c219: u_a8 - u_a1 - 940 y_a1_proc_0 >= -2571
 c220: u_a8 - u_a1 - 593 y_a1_proc_1 >= -1
 c221: u_a1 - u_a8 - 1042 y_a8_proc_0 >= -2570
 c222: u_a1 - u_a8 - 686 y_a8_proc_1 >= 0
 c223: u_a9 - u_a1 - 940 y_a1_proc_0 >= -3856
 c224: u_a9 - u_a1 - 593 y_a1_proc_1 >= -2571
 c225: u_a9 - u_a1 - 856 y_a1_proc_3 >= -2571
 c226: u_a1 - u_a9 - 1268 y_a9_proc_0 >= -1285
 c227: u_a1 - u_a9 - 1104 y_a9_proc_1 >= 0
 c228: u_a1 - u_a9 - 811 y_a9_proc_3 >= 0
 c229: u_a10 - u_a1 - 940 y_a1_proc_0 >= -2571
 c230: u_a10 - u_a1 - 593 y_a1_proc_1 >= -2571
 c231: u_a10 - u_a1 - 856 y_a1_proc_3 >= -3856
 c232: u_a1 - u_a10 - 1282 y_a10_proc_0 >= 0
 c233: u_a1 - u_a10 - 947 y_a10_proc_1 >= 0
 c234: u_a1 - u_a10 - 749 y_a10_proc_3 >= -1285
 c235: u_a11 - u_a1 - 940 y_a1_proc_0 >= -2571
 c236: u_a11 - u_a1 - 593 y_a1_proc_1 >= -1
 c237: u_a11 - u_a1 - 856 y_a1_proc_3 >= -2571
 c238: u_a1 - u_a11 - 868 y_a11_proc_0 >= -2570
 c239: u_a1 - u_a11 - 811 y_a11_proc_1 >= 0
 c240: u_a1 - u_a11 - 1276 y_a11_proc_3 >= -2570
 c241: u_a12 - u_a1 - 940 y_a1_proc_0 >= -2571
 c242: u_a12 - u_a1 - 593 y_a1_proc_1 >= -2571
 c243: u_a1 - u_a12 - 723 y_a12_proc_0 >= 0
 c244: u_a1 - u_a12 - 806 y_a12_proc_1 >= 0
 c245: u_a13 - u_a1 - 940 y_a1_proc_0 >= -2571
 c246: u_a13 - u_a1 - 856 y_a1_proc_3 >= -3856
 c247: u_a1 - u_a13 - 776 y_a13_proc_0 >= 0
 c248: u_a1 - u_a13 - 1009 y_a13_proc_3 >= -1285
 c249: u_a14 - u_a1 - 940 y_a1_proc_0 >= -2571
 c250: u_a14 - u_a1 - 593 y_a1_proc_1 >= -2571
 c251: u_a14 - u_a1 - 856 y_a1_proc_3 >= -3856
 c252: u_a1 - u_a14 - 919 y_a14_proc_0 >= 0
 c253: u_a1 - u_a14 - 584 y_a14_proc_1 >= 0
 c254: u_a1 - u_a14 - 866 y_a14_proc_3 >= -1285
 c255: u_a3 - u_a2 - 1271 y_a2_proc_0 >= -1285
 c256: u_a3 - u_a2 - 680 y_a2_proc_2 >= 0
 c257: u_a3 - u_a2 - 952 y_a2_proc_1 >= 0
 c258: u_a3 - u_a2 - 1235 y_a2_proc_3 >= -1285
 c259: u_a2 - u_a3 - 1161 y_a3_proc_0 >= -3856
 c260: u_a2 - u_a3 - 1285 y_a3_proc_2 >= -2571
 c261: u_a2 - u_a3 - 1103 y_a3_proc_1 >= -2571
 c262: u_a2 - u_a3 - 1112 y_a3_proc_3 >= -3856
 c263: u_a4 - u_a2 - 1271 y_a2_proc_0 >= -2570
 c264: u_a4 - u_a2 - 680 y_a2_proc_2 >= 0
 c265: u_a4 - u_a2 - 952 y_a2_proc_1 >= -2570
 c266: u_a4 - u_a2 - 1235 y_a2_proc_3 >= -2570
 c267: u_a2 - u_a4 - 945 y_a4_proc_0 >= -2571
 c268: u_a2 - u_a4 - 490 y_a4_proc_2 >= -1
 c269: u_a2 - u_a4 - 1108 y_a4_proc_1 >= -2571
 c270: u_a2 - u_a4 - 847 y_a4_proc_3 >= -2571
 c271: u_a5 - u_a2 - 1271 y_a2_proc_0 >= -2570
 c272: u_a5 - u_a2 - 680 y_a2_proc_2 >= 0
 c273: u_a5 - u_a2 - 952 y_a2_proc_1 >= -2570
 c274: u_a5 - u_a2 - 1235 y_a2_proc_3 >= -2570
 c275: u_a2 - u_a5 - 710 y_a5_proc_0 >= -2571
 c276: u_a2 - u_a5 - 1204 y_a5_proc_2 >= -1
 c277: u_a2 - u_a5 - 1096 y_a5_proc_1 >= -2571
 c278: u_a2 - u_a5 - 949 y_a5_proc_3 >= -2571
 c279: u_a6 - u_a2 - 1271 y_a2_proc_0 >= -3856
 c280: u_a6 - u_a2 - 680 y_a2_proc_2 >= -2571
 c281: u_a6 - u_a2 - 952 y_a2_proc_1 >= -3856
 c282: u_a6 - u_a2 - 1235 y_a2_proc_3 >= -2571
 c283: u_a2 - u_a6 - 1133 y_a6_proc_0 >= -1285
 c284: u_a2 - u_a6 - 592 y_a6_proc_2 >= 0
 c285: u_a2 - u_a6 - 948 y_a6_proc_1 >= -1285
 c286: u_a2 - u_a6 - 438 y_a6_proc_3 >= 0
 c287: u_a7 - u_a2 - 1271 y_a2_proc_0 >= -2571
 c288: u_a7 - u_a2 - 1235 y_a2_proc_3 >= -3856
 c289: u_a2 - u_a7 - 1047 y_a7_proc_0 >= 0
 c290: u_a2 - u_a7 - 1168 y_a7_proc_3 >= -1285
 c291: u_a8 - u_a2 - 1271 y_a2_proc_0 >= -3856
 c292: u_a8 - u_a2 - 952 y_a2_proc_1 >= -2571
 c293: u_a2 - u_a8 - 1042 y_a8_proc_0 >= -1285
 c294: u_a2 - u_a8 - 686 y_a8_proc_1 >= 0
 c295: u_a9 - u_a2 - 1271 y_a2_proc_0 >= -3856
 c296: u_a9 - u_a2 - 680 y_a2_proc_2 >= -2571
 c297: u_a9 - u_a2 - 952 y_a2_proc_1 >= -3856
 c298: u_a9 - u_a2 - 1235 y_a2_proc_3 >= -2571
 c299: u_a2 - u_a9 - 1268 y_a9_proc_0 >= -1285
 c300: u_a2 - u_a9 - 996 y_a9_proc_2 >= 0
 c301: u_a2 - u_a9 - 1104 y_a9_proc_1 >= -1285
 c302: u_a2 - u_a9 - 811 y_a9_proc_3 >= 0
 c303: u_a10 - u_a2 - 1271 y_a2_proc_0 >= -2570
 c304: u_a10 - u_a2 - 680 y_a2_proc_2 >= -2570
 c305: u_a10 - u_a2 - 952 y_a2_proc_1 >= -3855
 c306: u_a10 - u_a2 - 1235 y_a2_proc_3 >= -3855
 c307: u_a2 - u_a10 - 1282 y_a10_proc_0 >= -1
 c308: u_a2 - u_a10 - 1133 y_a10_proc_2 >= -1
 c309: u_a2 - u_a10 - 947 y_a10_proc_1 >= -1286
 c310: u_a2 - u_a10 - 749 y_a10_proc_3 >= -1286
 c311: u_a11 - u_a2 - 1271 y_a2_proc_0 >= -3856
 c312: u_a11 - u_a2 - 680 y_a2_proc_2 >= -2571
 c313: u_a11 - u_a2 - 952 y_a2_proc_1 >= -2571
 c314: u_a11 - u_a2 - 1235 y_a2_proc_3 >= -3856
 c315: u_a2 - u_a11 - 868 y_a11_proc_0 >= -1285
 c316: u_a2 - u_a11 - 1094 y_a11_proc_2 >= 0
 c317: u_a2 - u_a11 - 811 y_a11_proc_1 >= 0
 c318: u_a2 - u_a11 - 1276 y_a11_proc_3 >= -1285
 c319: u_a12 - u_a2 - 1271 y_a2_proc_0 >= -2571
 c320: u_a12 - u_a2 - 680 y_a2_proc_2 >= -2571
 c321: u_a12 - u_a2 - 952 y_a2_proc_1 >= -3856
 c322: u_a2 - u_a12 - 723 y_a12_proc_0 >= 0
 c323: u_a2 - u_a12 - 765 y_a12_proc_2 >= 0
 c324: u_a2 - u_a12 - 806 y_a12_proc_1 >= -1285
 c325: u_a13 - u_a2 - 1271 y_a2_proc_0 >= -2570
 c326: u_a13 - u_a2 - 680 y_a2_proc_2 >= -2570
 c327: u_a13 - u_a2 - 1235 y_a2_proc_3 >= -3855
 c328: u_a2 - u_a13 - 776 y_a13_proc_0 >= -1
 c329: u_a2 - u_a13 - 925 y_a13_proc_2 >= -1
 c330: u_a2 - u_a13 - 1009 y_a13_proc_3 >= -1286
 c331: u_a14 - u_a2 - 1271 y_a2_proc_0 >= -2570
 c332: u_a14 - u_a2 - 680 y_a2_proc_2 >= -2570
 c333: u_a14 - u_a2 - 952 y_a2_proc_1 >= -3855
 c334: u_a14 - u_a2 - 1235 y_a2_proc_3 >= -3855
 c335: u_a2 - u_a14 - 919 y_a14_proc_0 >= -1
 c336: u_a2 - u_a14 - 889 y_a14_proc_2 >= -1
 c337: u_a2 - u_a14 - 584 y_a14_proc_1 >= -1286
 c338: u_a2 - u_a14 - 866 y_a14_proc_3 >= -1286
 c339: u_a4 - u_a3 - 1161 y_a3_proc_0 >= -1285
 c340: u_a4 - u_a3 - 1285 y_a3_proc_2 >= 0
 c341: u_a4 - u_a3 - 1103 y_a3_proc_1 >= 0
 c342: u_a4 - u_a3 - 1112 y_a3_proc_3 >= -1285
 c343: u_a3 - u_a4 - 945 y_a4_proc_0 >= -3856
 c344: u_a3 - u_a4 - 490 y_a4_proc_2 >= -2571
 c345: u_a3 - u_a4 - 1108 y_a4_proc_1 >= -2571
 c346: u_a3 - u_a4 - 847 y_a4_proc_3 >= -3856
 c347: u_a5 - u_a3 - 1161 y_a3_proc_0 >= -3855
 c348: u_a5 - u_a3 - 1285 y_a3_proc_2 >= -2570
 c349: u_a5 - u_a3 - 1103 y_a3_proc_1 >= -2570
 c350: u_a5 - u_a3 - 1112 y_a3_proc_3 >= -3855
 c351: u_a3 - u_a5 - 710 y_a5_proc_0 >= -1286
 c352: u_a3 - u_a5 - 1204 y_a5_proc_2 >= -1
 c353: u_a3 - u_a5 - 1096 y_a5_proc_1 >= -1
 c354: u_a3 - u_a5 - 949 y_a5_proc_3 >= -1286
 c355: u_a6 - u_a3 - 1161 y_a3_proc_0 >= -3856
 c356: u_a6 - u_a3 - 1285 y_a3_proc_2 >= -3856
 c357: u_a6 - u_a3 - 1103 y_a3_proc_1 >= -2571
 c358: u_a6 - u_a3 - 1112 y_a3_proc_3 >= -2571
 c359: u_a3 - u_a6 - 1133 y_a6_proc_0 >= -1285
 c360: u_a3 - u_a6 - 592 y_a6_proc_2 >= -1285
 c361: u_a3 - u_a6 - 948 y_a6_proc_1 >= 0
 c362: u_a3 - u_a6 - 438 y_a6_proc_3 >= 0
 c363: u_a7 - u_a3 - 1161 y_a3_proc_0 >= -2571
 c364: u_a7 - u_a3 - 1112 y_a3_proc_3 >= -3856
 c365: u_a3 - u_a7 - 1047 y_a7_proc_0 >= 0
 c366: u_a3 - u_a7 - 1168 y_a7_proc_3 >= -1285
 c367: u_a8 - u_a3 - 1161 y_a3_proc_0 >= -2571
 c368: u_a8 - u_a3 - 1103 y_a3_proc_1 >= -1
 c369: u_a3 - u_a8 - 1042 y_a8_proc_0 >= -2570
 c370: u_a3 - u_a8 - 686 y_a8_proc_1 >= 0
 c371: u_a9 - u_a3 - 1161 y_a3_proc_0 >= -3856
 c372: u_a9 - u_a3 - 1285 y_a3_proc_2 >= -3856
 c373: u_a9 - u_a3 - 1103 y_a3_proc_1 >= -2571
 c374: u_a9 - u_a3 - 1112 y_a3_proc_3 >= -2571
 c375: u_a3 - u_a9 - 1268 y_a9_proc_0 >= -1285
 c376: u_a3 - u_a9 - 996 y_a9_proc_2 >= -1285
 c377: u_a3 - u_a9 - 1104 y_a9_proc_1 >= 0
 c378: u_a3 - u_a9 - 811 y_a9_proc_3 >= 0
 c379: u_a10 - u_a3 - 1161 y_a3_proc_0 >= -2570
 c380: u_a10 - u_a3 - 1285 y_a3_proc_2 >= -3855
 c381: u_a10 - u_a3 - 1103 y_a3_proc_1 >= -2570
 c382: u_a10 - u_a3 - 1112 y_a3_proc_3 >= -3855
 c383: u_a3 - u_a10 - 1282 y_a10_proc_0 >= -1
 c384: u_a3 - u_a10 - 1133 y_a10_proc_2 >= -1286
 c385: u_a3 - u_a10 - 947 y_a10_proc_1 >= -1
 c386: u_a3 - u_a10 - 749 y_a10_proc_3 >= -1286
 c387: u_a11 - u_a3 - 1161 y_a3_proc_0 >= -2571
 c388: u_a11 - u_a3 - 1285 y_a3_proc_2 >= -2571
 c389: u_a11 - u_a3 - 1103 y_a3_proc_1 >= -1
 c390: u_a11 - u_a3 - 1112 y_a3_proc_3 >= -2571
 c391: u_a3 - u_a11 - 868 y_a11_proc_0 >= -2570
 c392: u_a3 - u_a11 - 1094 y_a11_proc_2 >= -2570
 c393: u_a3 - u_a11 - 811 y_a11_proc_1 >= 0
 c394: u_a3 - u_a11 - 1276 y_a11_proc_3 >= -2570
 c395: u_a12 - u_a3 - 1161 y_a3_proc_0 >= -2571
 c396: u_a12 - u_a3 - 1285 y_a3_proc_2 >= -3856
 c397: u_a12 - u_a3 - 1103 y_a3_proc_1 >= -2571
 c398: u_a3 - u_a12 - 723 y_a12_proc_0 >= 0
 c399: u_a3 - u_a12 - 765 y_a12_proc_2 >= -1285
 c400: u_a3 - u_a12 - 806 y_a12_proc_1 >= 0
 c401: u_a13 - u_a3 - 1161 y_a3_proc_0 >= -2571
 c402: u_a13 - u_a3 - 1285 y_a3_proc_2 >= -3856
 c403: u_a13 - u_a3 - 1112 y_a3_proc_3 >= -3856
 c404: u_a3 - u_a13 - 776 y_a13_proc_0 >= 0
 c405: u_a3 - u_a13 - 925 y_a13_proc_2 >= -1285
 c406: u_a3 - u_a13 - 1009 y_a13_proc_3 >= -1285
 c407: u_a14 - u_a3 - 1161 y_a3_proc_0 >= -2571
 c408: u_a14 - u_a3 - 1285 y_a3_proc_2 >= -3856
 c409: u_a14 - u_a3 - 1103 y_a3_proc_1 >= -2571
 c410: u_a14 - u_a3 - 1112 y_a3_proc_3 >= -3856
 c411: u_a3 - u_a14 - 919 y_a14_proc_0 >= 0
 c412: u_a3 - u_a14 - 889 y_a14_proc_2 >= -1285
 c413: u_a3 - u_a14 - 584 y_a14_proc_1 >= 0
 c414: u_a3 - u_a14 - 866 y_a14_proc_3 >= -1285
 c415: u_a5 - u_a4 - 945 y_a4_proc_0 >= -2571
 c416: u_a5 - u_a4 - 490 y_a4_proc_2 >= -1
 c417: u_a5 - u_a4 - 1108 y_a4_proc_1 >= -2571
 c418: u_a5 - u_a4 - 847 y_a4_proc_3 >= -2571
 c419: u_a4 - u_a5 - 710 y_a5_proc_0 >= -2570
 c420: u_a4 - u_a5 - 1204 y_a5_proc_2 >= 0
 c421: u_a4 - u_a5 - 1096 y_a5_proc_1 >= -2570
 c422: u_a4 - u_a5 - 949 y_a5_proc_3 >= -2570
 c423: u_a6 - u_a4 - 945 y_a4_proc_0 >= -3857
 c424: u_a6 - u_a4 - 490 y_a4_proc_2 >= -2572
 c425: u_a6 - u_a4 - 1108 y_a4_proc_1 >= -3857
 c426: u_a6 - u_a4 - 847 y_a4_proc_3 >= -2572
 c427: u_a4 - u_a6 - 1133 y_a6_proc_0 >= -1284
 c428: u_a4 - u_a6 - 592 y_a6_proc_2 >= 1
 c429: u_a4 - u_a6 - 948 y_a6_proc_1 >= -1284
 c430: u_a4 - u_a6 - 438 y_a6_proc_3 >= 1
 c431: u_a7 - u_a4 - 945 y_a4_proc_0 >= -2571
 c432: u_a7 - u_a4 - 847 y_a4_proc_3 >= -3856
 c433: u_a4 - u_a7 - 1047 y_a7_proc_0 >= 0
 c434: u_a4 - u_a7 - 1168 y_a7_proc_3 >= -1285
 c435: u_a8 - u_a4 - 945 y_a4_proc_0 >= -3856
 c436: u_a8 - u_a4 - 1108 y_a4_proc_1 >= -2571
 c437: u_a4 - u_a8 - 1042 y_a8_proc_0 >= -1285
 c438: u_a4 - u_a8 - 686 y_a8_proc_1 >= 0
 c439: u_a9 - u_a4 - 945 y_a4_proc_0 >= -3856
 c440: u_a9 - u_a4 - 490 y_a4_proc_2 >= -2571
 c441: u_a9 - u_a4 - 1108 y_a4_proc_1 >= -3856
 c442: u_a9 - u_a4 - 847 y_a4_proc_3 >= -2571
 c443: u_a4 - u_a9 - 1268 y_a9_proc_0 >= -1285
 c444: u_a4 - u_a9 - 996 y_a9_proc_2 >= 0
 c445: u_a4 - u_a9 - 1104 y_a9_proc_1 >= -1285
 c446: u_a4 - u_a9 - 811 y_a9_proc_3 >= 0
 c447: u_a10 - u_a4 - 945 y_a4_proc_0 >= -2571
 c448: u_a10 - u_a4 - 490 y_a4_proc_2 >= -2571
 c449: u_a10 - u_a4 - 1108 y_a4_proc_1 >= -3856
 c450: u_a10 - u_a4 - 847 y_a4_proc_3 >= -3856
 c451: u_a4 - u_a10 - 1282 y_a10_proc_0 >= 0
 c452: u_a4 - u_a10 - 1133 y_a10_proc_2 >= 0
 c453: u_a4 - u_a10 - 947 y_a10_proc_1 >= -1285
 c454: u_a4 - u_a10 - 749 y_a10_proc_3 >= -1285
 c455: u_a11 - u_a4 - 945 y_a4_proc_0 >= -3856
 c456: u_a11 - u_a4 - 490 y_a4_proc_2 >= -2571
 c457: u_a11 - u_a4 - 1108 y_a4_proc_1 >= -2571
 c458: u_a11 - u_a4 - 847 y_a4_proc_3 >= -3856
 c459: u_a4 - u_a11 - 868 y_a11_proc_0 >= -1285
 c460: u_a4 - u_a11 - 1094 y_a11_proc_2 >= 0
 c461: u_a4 - u_a11 - 811 y_a11_proc_1 >= 0
 c462: u_a4 - u_a11 - 1276 y_a11_proc_3 >= -1285
 c463: u_a12 - u_a4 - 945 y_a4_proc_0 >= -2572
 c464: u_a12 - u_a4 - 490 y_a4_proc_2 >= -2572
 c465: u_a12 - u_a4 - 1108 y_a4_proc_1 >= -3857
 c466: u_a4 - u_a12 - 723 y_a12_proc_0 >= 1
 c467: u_a4 - u_a12 - 765 y_a12_proc_2 >= 1
 c468: u_a4 - u_a12 - 806 y_a12_proc_1 >= -1284
 c469: u_a13 - u_a4 - 945 y_a4_proc_0 >= -2571
 c470: u_a13 - u_a4 - 490 y_a4_proc_2 >= -2571
 c471: u_a13 - u_a4 - 847 y_a4_proc_3 >= -3856
 c472: u_a4 - u_a13 - 776 y_a13_proc_0 >= 0
 c473: u_a4 - u_a13 - 925 y_a13_proc_2 >= 0
 c474: u_a4 - u_a13 - 1009 y_a13_proc_3 >= -1285
 c475: u_a14 - u_a4 - 945 y_a4_proc_0 >= -2571
 c476: u_a14 - u_a4 - 490 y_a4_proc_2 >= -2571
 c477: u_a14 - u_a4 - 1108 y_a4_proc_1 >= -3856
 c478: u_a14 - u_a4 - 847 y_a4_proc_3 >= -3856
 c479: u_a4 - u_a14 - 919 y_a14_proc_0 >= 0
 c480: u_a4 - u_a14 - 889 y_a14_proc_2 >= 0
 c481: u_a4 - u_a14 - 584 y_a14_proc_1 >= -1285
 c482: u_a4 - u_a14 - 866 y_a14_proc_3 >= -1285
 c483: u_a6 - u_a5 - 710 y_a5_proc_0 >= -3856
 c484: u_a6 - u_a5 - 1204 y_a5_proc_2 >= -2571
 c485: u_a6 - u_a5 - 1096 y_a5_proc_1 >= -3856
 c486: u_a6 - u_a5 - 949 y_a5_proc_3 >= -2571
 c487: u_a5 - u_a6 - 1133 y_a6_proc_0 >= -1285
 c488: u_a5 - u_a6 - 592 y_a6_proc_2 >= 0
 c489: u_a5 - u_a6 - 948 y_a6_proc_1 >= -1285
 c490: u_a5 - u_a6 - 438 y_a6_proc_3 >= 0
 c491: u_a7 - u_a5 - 710 y_a5_proc_0 >= -2571
 c492: u_a7 - u_a5 - 949 y_a5_proc_3 >= -3856
 c493: u_a5 - u_a7 - 1047 y_a7_proc_0 >= 0
 c494: u_a5 - u_a7 - 1168 y_a7_proc_3 >= -1285
 c495: u_a8 - u_a5 - 710 y_a5_proc_0 >= -3856
 c496: u_a8 - u_a5 - 1096 y_a5_proc_1 >= -2571
 c497: u_a5 - u_a8 - 1042 y_a8_proc_0 >= -1285
 c498: u_a5 - u_a8 - 686 y_a8_proc_1 >= 0
 c499: u_a9 - u_a5 - 710 y_a5_proc_0 >= -1286
 c500: u_a9 - u_a5 - 1204 y_a5_proc_2 >= -1
 c501: u_a9 - u_a5 - 1096 y_a5_proc_1 >= -1286
 c502: u_a9 - u_a5 - 949 y_a5_proc_3 >= -1
 c503: u_a5 - u_a9 - 1268 y_a9_proc_0 >= -3855
 c504: u_a5 - u_a9 - 996 y_a9_proc_2 >= -2570
 c505: u_a5 - u_a9 - 1104 y_a9_proc_1 >= -3855
 c506: u_a5 - u_a9 - 811 y_a9_proc_3 >= -2570
 c507: u_a10 - u_a5 - 710 y_a5_proc_0 >= -2570
 c508: u_a10 - u_a5 - 1204 y_a5_proc_2 >= -2570
 c509: u_a10 - u_a5 - 1096 y_a5_proc_1 >= -3855
 c510: u_a10 - u_a5 - 949 y_a5_proc_3 >= -3855
 c511: u_a5 - u_a10 - 1282 y_a10_proc_0 >= -1
 c512: u_a5 - u_a10 - 1133 y_a10_proc_2 >= -1
 c513: u_a5 - u_a10 - 947 y_a10_proc_1 >= -1286
 c514: u_a5 - u_a10 - 749 y_a10_proc_3 >= -1286
 c515: u_a11 - u_a5 - 710 y_a5_proc_0 >= -3856
 c516: u_a11 - u_a5 - 1204 y_a5_proc_2 >= -2571
 c517: u_a11 - u_a5 - 1096 y_a5_proc_1 >= -2571
 c518: u_a11 - u_a5 - 949 y_a5_proc_3 >= -3856
 c519: u_a5 - u_a11 - 868 y_a11_proc_0 >= -1285
 c520: u_a5 - u_a11 - 1094 y_a11_proc_2 >= 0
 c521: u_a5 - u_a11 - 811 y_a11_proc_1 >= 0
 c522: u_a5 - u_a11 - 1276 y_a11_proc_3 >= -1285
 c523: u_a12 - u_a5 - 710 y_a5_proc_0 >= -1
 c524: u_a12 - u_a5 - 1204 y_a5_proc_2 >= -1
 c525: u_a12 - u_a5 - 1096 y_a5_proc_1 >= -1286
 c526: u_a5 - u_a12 - 723 y_a12_proc_0 >= -2570
 c527: u_a5 - u_a12 - 765 y_a12_proc_2 >= -2570
 c528: u_a5 - u_a12 - 806 y_a12_proc_1 >= -3855
 c529: u_a13 - u_a5 - 710 y_a5_proc_0 >= -2571
 c530: u_a13 - u_a5 - 1204 y_a5_proc_2 >= -2571
 c531: u_a13 - u_a5 - 949 y_a5_proc_3 >= -3856
 c532: u_a5 - u_a13 - 776 y_a13_proc_0 >= 0
 c533: u_a5 - u_a13 - 925 y_a13_proc_2 >= 0
 c534: u_a5 - u_a13 - 1009 y_a13_proc_3 >= -1285
 c535: u_a14 - u_a5 - 710 y_a5_proc_0 >= -2570
 c536: u_a14 - u_a5 - 1204 y_a5_proc_2 >= -2570
 c537: u_a14 - u_a5 - 1096 y_a5_proc_1 >= -3855
 c538: u_a14 - u_a5 - 949 y_a5_proc_3 >= -3855
 c539: u_a5 - u_a14 - 919 y_a14_proc_0 >= -1
 c540: u_a5 - u_a14 - 889 y_a14_proc_2 >= -1
 c541: u_a5 - u_a14 - 584 y_a14_proc_1 >= -1286
 c542: u_a5 - u_a14 - 866 y_a14_proc_3 >= -1286
 c543: u_a7 - u_a6 - 1133 y_a6_proc_0 >= -2570
 c544: u_a7 - u_a6 - 438 y_a6_proc_3 >= -2570
 c545: u_a6 - u_a7 - 1047 y_a7_proc_0 >= -1
 c546: u_a6 - u_a7 - 1168 y_a7_proc_3 >= -1
 c547: u_a8 - u_a6 - 1133 y_a6_proc_0 >= -3855
 c548: u_a8 - u_a6 - 948 y_a6_proc_1 >= -2570
 c549: u_a6 - u_a8 - 1042 y_a8_proc_0 >= -1286
 c550: u_a6 - u_a8 - 686 y_a8_proc_1 >= -1
 c551: u_a9 - u_a6 - 1133 y_a6_proc_0 >= -2570
 c552: u_a9 - u_a6 - 592 y_a6_proc_2 >= -2570
 c553: u_a9 - u_a6 - 948 y_a6_proc_1 >= -2570
 c554: u_a9 - u_a6 - 438 y_a6_proc_3 >= 0
 c555: u_a6 - u_a9 - 1268 y_a9_proc_0 >= -2571
 c556: u_a6 - u_a9 - 996 y_a9_proc_2 >= -2571
 c557: u_a6 - u_a9 - 1104 y_a9_proc_1 >= -2571
 c558: u_a6 - u_a9 - 811 y_a9_proc_3 >= -1
 c559: u_a10 - u_a6 - 1133 y_a6_proc_0 >= -2570
 c560: u_a10 - u_a6 - 592 y_a6_proc_2 >= -3855
 c561: u_a10 - u_a6 - 948 y_a6_proc_1 >= -3855
 c562: u_a10 - u_a6 - 438 y_a6_proc_3 >= -2570
 c563: u_a6 - u_a10 - 1282 y_a10_proc_0 >= -1
 c564: u_a6 - u_a10 - 1133 y_a10_proc_2 >= -1286
 c565: u_a6 - u_a10 - 947 y_a10_proc_1 >= -1286
 c566: u_a6 - u_a10 - 749 y_a10_proc_3 >= -1
 c567: u_a11 - u_a6 - 1133 y_a6_proc_0 >= -3855
 c568: u_a11 - u_a6 - 592 y_a6_proc_2 >= -3855
 c569: u_a11 - u_a6 - 948 y_a6_proc_1 >= -2570
 c570: u_a11 - u_a6 - 438 y_a6_proc_3 >= -2570
 c571: u_a6 - u_a11 - 868 y_a11_proc_0 >= -1286
 c572: u_a6 - u_a11 - 1094 y_a11_proc_2 >= -1286
 c573: u_a6 - u_a11 - 811 y_a11_proc_1 >= -1
 c574: u_a6 - u_a11 - 1276 y_a11_proc_3 >= -1
 c575: u_a12 - u_a6 - 1133 y_a6_proc_0 >= -2570
 c576: u_a12 - u_a6 - 592 y_a6_proc_2 >= -3855
 c577: u_a12 - u_a6 - 948 y_a6_proc_1 >= -3855
 c578: u_a6 - u_a12 - 723 y_a12_proc_0 >= -1
 c579: u_a6 - u_a12 - 765 y_a12_proc_2 >= -1286
 c580: u_a6 - u_a12 - 806 y_a12_proc_1 >= -1286
 c581: u_a13 - u_a6 - 1133 y_a6_proc_0 >= -2570
 c582: u_a13 - u_a6 - 592 y_a6_proc_2 >= -3855
 c583: u_a13 - u_a6 - 438 y_a6_proc_3 >= -2570
 c584: u_a6 - u_a13 - 776 y_a13_proc_0 >= -1
 c585: u_a6 - u_a13 - 925 y_a13_proc_2 >= -1286
 c586: u_a6 - u_a13 - 1009 y_a13_proc_3 >= -1
 c587: u_a14 - u_a6 - 1133 y_a6_proc_0 >= -2570
 c588: u_a14 - u_a6 - 592 y_a6_proc_2 >= -3855
 c589: u_a14 - u_a6 - 948 y_a6_proc_1 >= -3855
 c590: u_a14 - u_a6 - 438 y_a6_proc_3 >= -2570
 c591: u_a6 - u_a14 - 919 y_a14_proc_0 >= -1
 c592: u_a6 - u_a14 - 889 y_a14_proc_2 >= -1286
 c593: u_a6 - u_a14 - 584 y_a14_proc_1 >= -1286
 c594: u_a6 - u_a14 - 866 y_a14_proc_3 >= -1
 c595: u_a8 - u_a7 - 1047 y_a7_proc_0 >= -2570
 c596: u_a7 - u_a8 - 1042 y_a8_proc_0 >= -1
 c597: u_a9 - u_a7 - 1047 y_a7_proc_0 >= -2570
 c598: u_a9 - u_a7 - 1168 y_a7_proc_3 >= -2570
 c599: u_a7 - u_a9 - 1268 y_a9_proc_0 >= -1
 c600: u_a7 - u_a9 - 811 y_a9_proc_3 >= -1
 c601: u_a10 - u_a7 - 1047 y_a7_proc_0 >= 0
 c602: u_a10 - u_a7 - 1168 y_a7_proc_3 >= -2570
 c603: u_a7 - u_a10 - 1282 y_a10_proc_0 >= -1
 c604: u_a7 - u_a10 - 749 y_a10_proc_3 >= -2571
 c605: u_a11 - u_a7 - 1047 y_a7_proc_0 >= -2570
 c606: u_a11 - u_a7 - 1168 y_a7_proc_3 >= -3855
 c607: u_a7 - u_a11 - 868 y_a11_proc_0 >= -1
 c608: u_a7 - u_a11 - 1276 y_a11_proc_3 >= -1286
 c609: u_a12 - u_a7 - 1047 y_a7_proc_0 >= -1
 c610: u_a7 - u_a12 - 723 y_a12_proc_0 >= 0
 c611: u_a13 - u_a7 - 1047 y_a7_proc_0 >= 0
 c612: u_a13 - u_a7 - 1168 y_a7_proc_3 >= -2570
 c613: u_a7 - u_a13 - 776 y_a13_proc_0 >= -1
 c614: u_a7 - u_a13 - 1009 y_a13_proc_3 >= -2571
 c615: u_a14 - u_a7 - 1047 y_a7_proc_0 >= 0
 c616: u_a14 - u_a7 - 1168 y_a7_proc_3 >= -2570
 c617: u_a7 - u_a14 - 919 y_a14_proc_0 >= -1
 c618: u_a7 - u_a14 - 866 y_a14_proc_3 >= -2571
 c619: u_a9 - u_a8 - 1042 y_a8_proc_0 >= -3856
 c620: u_a9 - u_a8 - 686 y_a8_proc_1 >= -2571
 c621: u_a8 - u_a9 - 1268 y_a9_proc_0 >= -1285
 c622: u_a8 - u_a9 - 1104 y_a9_proc_1 >= 0
 c623: u_a10 - u_a8 - 1042 y_a8_proc_0 >= -2570
 c624: u_a10 - u_a8 - 686 y_a8_proc_1 >= -2570
 c625: u_a8 - u_a10 - 1282 y_a10_proc_0 >= -1
 c626: u_a8 - u_a10 - 947 y_a10_proc_1 >= -1
 c627: u_a11 - u_a8 - 1042 y_a8_proc_0 >= -2571
 c628: u_a11 - u_a8 - 686 y_a8_proc_1 >= -1
 c629: u_a8 - u_a11 - 868 y_a11_proc_0 >= -2570
 c630: u_a8 - u_a11 - 811 y_a11_proc_1 >= 0
 c631: u_a12 - u_a8 - 1042 y_a8_proc_0 >= -2571
 c632: u_a12 - u_a8 - 686 y_a8_proc_1 >= -2571
 c633: u_a8 - u_a12 - 723 y_a12_proc_0 >= 0
 c634: u_a8 - u_a12 - 806 y_a12_proc_1 >= 0
 c635: u_a13 - u_a8 - 1042 y_a8_proc_0 >= -2570
 c636: u_a8 - u_a13 - 776 y_a13_proc_0 >= -1
 c637: u_a14 - u_a8 - 1042 y_a8_proc_0 >= -2570
 c638: u_a14 - u_a8 - 686 y_a8_proc_1 >= -2570
 c639: u_a8 - u_a14 - 919 y_a14_proc_0 >= -1
 c640: u_a8 - u_a14 - 584 y_a14_proc_1 >= -1
 c641: u_a10 - u_a9 - 1268 y_a9_proc_0 >= -2570
 c642: u_a10 - u_a9 - 996 y_a9_proc_2 >= -3855
 c643: u_a10 - u_a9 - 1104 y_a9_proc_1 >= -3855
 c644: u_a10 - u_a9 - 811 y_a9_proc_3 >= -2570
 c645: u_a9 - u_a10 - 1282 y_a10_proc_0 >= -1
 c646: u_a9 - u_a10 - 1133 y_a10_proc_2 >= -1286
 c647: u_a9 - u_a10 - 947 y_a10_proc_1 >= -1286
 c648: u_a9 - u_a10 - 749 y_a10_proc_3 >= -1
 c649: u_a11 - u_a9 - 1268 y_a9_proc_0 >= -3856
 c650: u_a11 - u_a9 - 996 y_a9_proc_2 >= -3856
 c651: u_a11 - u_a9 - 1104 y_a9_proc_1 >= -2571
 c652: u_a11 - u_a9 - 811 y_a9_proc_3 >= -2571
 c653: u_a9 - u_a11 - 868 y_a11_proc_0 >= -1285
 c654: u_a9 - u_a11 - 1094 y_a11_proc_2 >= -1285
 c655: u_a9 - u_a11 - 811 y_a11_proc_1 >= 0
 c656: u_a9 - u_a11 - 1276 y_a11_proc_3 >= 0
 c657: u_a12 - u_a9 - 1268 y_a9_proc_0 >= -2571
 c658: u_a12 - u_a9 - 996 y_a9_proc_2 >= -3856
 c659: u_a12 - u_a9 - 1104 y_a9_proc_1 >= -3856
 c660: u_a9 - u_a12 - 723 y_a12_proc_0 >= 0
 c661: u_a9 - u_a12 - 765 y_a12_proc_2 >= -1285
 c662: u_a9 - u_a12 - 806 y_a12_proc_1 >= -1285
 c663: u_a13 - u_a9 - 1268 y_a9_proc_0 >= 0
 c664: u_a13 - u_a9 - 996 y_a9_proc_2 >= -1285
 c665: u_a13 - u_a9 - 811 y_a9_proc_3 >= 0
 c666: u_a9 - u_a13 - 776 y_a13_proc_0 >= -2571
 c667: u_a9 - u_a13 - 925 y_a13_proc_2 >= -3856
 c668: u_a9 - u_a13 - 1009 y_a13_proc_3 >= -2571
 c669: u_a14 - u_a9 - 1268 y_a9_proc_0 >= -2570
 c670: u_a14 - u_a9 - 996 y_a9_proc_2 >= -3855
 c671: u_a14 - u_a9 - 1104 y_a9_proc_1 >= -3855
 c672: u_a14 - u_a9 - 811 y_a9_proc_3 >= -2570
 c673: u_a9 - u_a14 - 919 y_a14_proc_0 >= -1
 c674: u_a9 - u_a14 - 889 y_a14_proc_2 >= -1286
 c675: u_a9 - u_a14 - 584 y_a14_proc_1 >= -1286
 c676: u_a9 - u_a14 - 866 y_a14_proc_3 >= -1
 c677: u_a11 - u_a10 - 1282 y_a10_proc_0 >= -2571
 c678: u_a11 - u_a10 - 1133 y_a10_proc_2 >= -3856
 c679: u_a11 - u_a10 - 947 y_a10_proc_1 >= -2571
 c680: u_a11 - u_a10 - 749 y_a10_proc_3 >= -3856
 c681: u_a10 - u_a11 - 868 y_a11_proc_0 >= 0
 c682: u_a10 - u_a11 - 1094 y_a11_proc_2 >= -1285
 c683: u_a10 - u_a11 - 811 y_a11_proc_1 >= 0
 c684: u_a10 - u_a11 - 1276 y_a11_proc_3 >= -1285
 c685: u_a12 - u_a10 - 1282 y_a10_proc_0 >= -1
 c686: u_a12 - u_a10 - 1133 y_a10_proc_2 >= -2571
 c687: u_a12 - u_a10 - 947 y_a10_proc_1 >= -2571
 c688: u_a10 - u_a12 - 723 y_a12_proc_0 >= 0
 c689: u_a10 - u_a12 - 765 y_a12_proc_2 >= -2570
 c690: u_a10 - u_a12 - 806 y_a12_proc_1 >= -2570
 c691: u_a13 - u_a10 - 1282 y_a10_proc_0 >= -1
 c692: u_a13 - u_a10 - 1133 y_a10_proc_2 >= -2571
 c693: u_a13 - u_a10 - 749 y_a10_proc_3 >= -2571
 c694: u_a10 - u_a13 - 776 y_a13_proc_0 >= 0
 c695: u_a10 - u_a13 - 925 y_a13_proc_2 >= -2570
 c696: u_a10 - u_a13 - 1009 y_a13_proc_3 >= -2570
 c697: u_a14 - u_a10 - 1282 y_a10_proc_0 >= -1
 c698: u_a14 - u_a10 - 1133 y_a10_proc_2 >= -2571
 c699: u_a14 - u_a10 - 947 y_a10_proc_1 >= -2571
 c700: u_a14 - u_a10 - 749 y_a10_proc_3 >= -2571
 c701: u_a10 - u_a14 - 919 y_a14_proc_0 >= 0
 c702: u_a10 - u_a14 - 889 y_a14_proc_2 >= -2570
 c703: u_a10 - u_a14 - 584 y_a14_proc_1 >= -2570
 c704: u_a10 - u_a14 - 866 y_a14_proc_3 >= -2570
 c705: u_a12 - u_a11 - 868 y_a11_proc_0 >= -2571
 c706: u_a12 - u_a11 - 1094 y_a11_proc_2 >= -3856
 c707: u_a12 - u_a11 - 811 y_a11_proc_1 >= -2571
 c708: u_a11 - u_a12 - 723 y_a12_proc_0 >= 0
 c709: u_a11 - u_a12 - 765 y_a12_proc_2 >= -1285
 c710: u_a11 - u_a12 - 806 y_a12_proc_1 >= 0
 c711: u_a13 - u_a11 - 868 y_a11_proc_0 >= -2570
 c712: u_a13 - u_a11 - 1094 y_a11_proc_2 >= -3855
 c713: u_a13 - u_a11 - 1276 y_a11_proc_3 >= -3855
 c714: u_a11 - u_a13 - 776 y_a13_proc_0 >= -1
 c715: u_a11 - u_a13 - 925 y_a13_proc_2 >= -1286
 c716: u_a11 - u_a13 - 1009 y_a13_proc_3 >= -1286
 c717: u_a14 - u_a11 - 868 y_a11_proc_0 >= 0
 c718: u_a14 - u_a11 - 1094 y_a11_proc_2 >= -1285
 c719: u_a14 - u_a11 - 811 y_a11_proc_1 >= 0
 c720: u_a14 - u_a11 - 1276 y_a11_proc_3 >= -1285
 c721: u_a11 - u_a14 - 919 y_a14_proc_0 >= -2571
 c722: u_a11 - u_a14 - 889 y_a14_proc_2 >= -3856
 c723: u_a11 - u_a14 - 584 y_a14_proc_1 >= -2571
 c724: u_a11 - u_a14 - 866 y_a14_proc_3 >= -3856
 c725: u_a13 - u_a12 - 723 y_a12_proc_0 >= 0
 c726: u_a13 - u_a12 - 765 y_a12_proc_2 >= -2570
 c727: u_a12 - u_a13 - 776 y_a13_proc_0 >= -1
 c728: u_a12 - u_a13 - 925 y_a13_proc_2 >= -2571
 c729: u_a14 - u_a12 - 723 y_a12_proc_0 >= 0
 c730: u_a14 - u_a12 - 765 y_a12_proc_2 >= -2570
 c731: u_a14 - u_a12 - 806 y_a12_proc_1 >= -2570
 c732: u_a12 - u_a14 - 919 y_a14_proc_0 >= -1
 c733: u_a12 - u_a14 - 889 y_a14_proc_2 >= -2571
 c734: u_a12 - u_a14 - 584 y_a14_proc_1 >= -2571
 c735: u_a14 - u_a13 - 776 y_a13_proc_0 >= 0
 c736: u_a14 - u_a13 - 925 y_a13_proc_2 >= -2570
 c737: u_a14 - u_a13 - 1009 y_a13_proc_3 >= -2570
 c738: u_a13 - u_a14 - 919 y_a14_proc_0 >= -1
 c739: u_a13 - u_a14 - 889 y_a14_proc_2 >= -2571
 c740: u_a13 - u_a14 - 866 y_a14_proc_3 >= -2571

Bounds
End
